# Solution for model problem_
# Objective value = 4.0704537905586694e+04
x(0_0) 0
x(0_1) 0
x(0_2) 0
x(0_3) 0
x(0_4) 0
x(0_5) 0
x(0_6) 0
x(0_7) 0
x(0_8) 0
x(0_9) 0
x(0_10) 0
x(0_11) 1
x(0_12) 0
x(1_13) 0
x(1_14) 0
x(1_15) 0
x(1_16) 0
x(1_17) 0
x(1_18) 0
x(1_19) 0
x(1_20) 1
x(1_21) 0
x(1_22) 0
x(1_23) 0
x(1_24) 0
x(2_25) 0
x(2_26) 0
x(2_27) 0
x(2_28) 0
x(2_29) 0
x(2_30) 0
x(2_31) 0
x(2_32) 0
x(2_33) 0
x(2_34) 1
x(2_35) 0
x(2_36) 0
x(2_37) 0
x(2_38) 0
x(2_39) 0
x(2_40) 0
x(3_41) 0
x(3_42) 0
x(3_43) 0
x(3_44) 0
x(3_45) 0
x(3_46) 0
x(3_47) 1
x(3_48) 0
x(3_49) 0
x(3_50) 0
x(3_51) 0
x(4_52) 0
x(4_53) 1
x(4_54) 0
x(4_55) 0
x(4_56) 0
x(4_57) 0
x(4_58) 0
x(4_59) 0
x(4_60) 0
x(4_61) 0
x(4_62) 0
x(5_63) 1
x(5_64) 0
x(5_65) 0
x(5_66) 0
x(5_67) 0
x(5_68) 0
x(5_69) 0
x(5_70) 0
x(5_71) 0
x(5_72) 0
x(5_73) 0
x(5_74) 0
x(5_75) 0
x(5_76) 0
x(5_77) 0
x(5_78) 0
x(6_79) 0
x(6_80) 0
x(6_81) 1
x(6_82) 0
x(6_83) 0
x(6_84) 0
x(6_85) 0
x(6_86) 0
x(6_87) 0
x(6_88) 0
x(6_89) 0
x(6_90) 0
x(6_91) 0
x(7_92) 0
x(7_93) 0
x(7_94) 0
x(7_95) 0
x(7_96) 0
x(7_97) 1
x(7_98) 0
x(7_99) 0
x(7_100) 0
x(7_101) 0
x(8_102) 0
x(8_103) 0
x(8_104) 0
x(8_105) 0
x(8_106) 0
x(8_107) 0
x(8_108) 0
x(8_109) 0
x(8_110) 0
x(8_111) 0
x(8_112) 0
x(8_113) 0
x(8_114) 0
x(8_115) 0
x(8_116) 1
x(8_117) 0
x(8_118) 0
x(8_119) 0
x(8_120) 0
x(9_121) 0
x(9_122) 0
x(9_123) 0
x(9_124) 0
x(9_125) 0
x(9_126) 0
x(9_127) 0
x(9_128) 0
x(9_129) 0
x(9_130) 1
x(9_131) 0
x(9_132) 0
x(9_133) 0
x(9_134) 0
x(9_135) 0
x(9_136) 0
x(10_137) 0
x(10_138) 0
x(10_139) 0
x(10_140) 0
x(10_141) 0
x(10_142) 0
x(10_143) 0
x(10_144) 0
x(10_145) 0
x(10_146) 0
x(10_147) 0
x(10_148) 0
x(10_149) 0
x(10_150) 1
x(10_151) 0
x(10_152) 0
x(10_153) 0
x(10_154) 0
x_1_0 5.8962444782257080e+01
s_1_0 0
z_1_0 0
x_1_1 5.8277610778808594e+01
s_1_1 0
z_1_1 0
x_1_2 0
s_1_2 4.6850128844380379e-01
z_1_2 1
x_1_3 0
s_1_3 4.4464162876829505e-01
z_1_3 1
x_1_4 0
s_1_4 6.5822375798597932e-01
z_1_4 1
x_1_5 5.7294957637786865e+01
s_1_5 0
z_1_5 0
x_1_6 5.8437039375305176e+01
s_1_6 0
z_1_6 0
x_1_7 0
s_1_7 6.2381077650934458e-01
z_1_7 1
x_1_8 5.8469851255416870e+01
s_1_8 0
z_1_8 0
x_1_9 5.8425017833709717e+01
s_1_9 0
z_1_9 0
x_1_10 5.8270368576049805e+01
s_1_10 0
z_1_10 0
x_1_11 5.7957446336746216e+01
s_1_11 0
z_1_11 0
x_1_12 5.7946966648101807e+01
s_1_12 0
z_1_12 0
x_1_13 5.8027592658996582e+01
s_1_13 0
z_1_13 0
x_1_14 5.7949560642242432e+01
s_1_14 0
z_1_14 0
x_1_15 0
s_1_15 7.0936552993953228e-01
z_1_15 1
x_1_16 5.8582745790481567e+01
s_1_16 0
z_1_16 0
x_1_17 5.8849280595779419e+01
s_1_17 0
z_1_17 0
x_1_18 5.8957326650619507e+01
s_1_18 0
z_1_18 0
x_1_19 5.8565301179885864e+01
s_1_19 0
z_1_19 0
x_1_20 5.8031659126281738e+01
s_1_20 0
z_1_20 0
x_1_21 5.8908431053161621e+01
s_1_21 0
z_1_21 0
x_1_22 0
s_1_22 3.4497132222168148e-01
z_1_22 1
x_1_23 5.8151098012924194e+01
s_1_23 0
z_1_23 0
x_1_24 5.8274920463562012e+01
s_1_24 0
z_1_24 0
x_1_25 5.7653594255447388e+01
s_1_25 0
z_1_25 0
x_1_26 58.5990571975708
s_1_26 0
z_1_26 0
x_1_27 5.8446619033813477e+01
s_1_27 0
z_1_27 0
x_1_28 0
s_1_28 5.7592625077813864e-01
z_1_28 1
x_1_29 5.8476828575134277e+01
s_1_29 0
z_1_29 0
x_1_30 0
s_1_30 3.9082625228911638e-01
z_1_30 1
x_1_31 0
s_1_31 4.0280954726040363e-01
z_1_31 1
x_1_32 5.8611594200134277e+01
s_1_32 0
z_1_32 0
x_1_33 57.9853413105011
s_1_33 0
z_1_33 0
x_1_34 0
s_1_34 0.608347381814383
z_1_34 1
x_1_35 0
s_1_35 7.2000224469229579e-01
z_1_35 1
x_1_36 5.7730435371398926e+01
s_1_36 0
z_1_36 0
x_1_37 5.7896494150161743e+01
s_1_37 0
z_1_37 0
x_1_38 5.7490998268127441e+01
s_1_38 0
z_1_38 0
x_1_39 5.8572783946990967e+01
s_1_39 0
z_1_39 0
x_1_40 5.8437547445297241e+01
s_1_40 0
z_1_40 0
x_1_41 5.8506046056747437e+01
s_1_41 0
z_1_41 0
x_1_42 0
s_1_42 6.0783108137547970e-01
z_1_42 1
x_1_43 58.3689661026001
s_1_43 0
z_1_43 0
x_1_44 5.7578919649124146e+01
s_1_44 0
z_1_44 0
x_1_45 5.8514970541000366e+01
s_1_45 0
z_1_45 0
x_1_46 5.7879757404327393e+01
s_1_46 0
z_1_46 0
x_1_47 5.6966302394866943e+01
s_1_47 0
z_1_47 0
x_1_48 5.7846007108688354e+01
s_1_48 0
z_1_48 0
x_1_49 5.8068840026855469e+01
s_1_49 0
z_1_49 0
x_1_50 5.7792019844055176e+01
s_1_50 0
z_1_50 0
x_1_51 0
s_1_51 6.2570143118500710e-01
z_1_51 1
x_1_52 5.8192378759384155e+01
s_1_52 0
z_1_52 0
x_1_53 0
s_1_53 0.507614778354764
z_1_53 1
x_1_54 5.8073765516281128e+01
s_1_54 0
z_1_54 0
x_1_55 0
s_1_55 7.0274974964559078e-01
z_1_55 1
x_1_56 0
s_1_56 0.353034163126722
z_1_56 1
x_1_57 5.8983986854553223e+01
s_1_57 0
z_1_57 0
x_1_58 5.8422666072845459e+01
s_1_58 0
z_1_58 0
x_1_59 5.6740182876586914e+01
s_1_59 0
z_1_59 0
x_1_60 5.8174834012985229e+01
s_1_60 0
z_1_60 0
x_1_61 5.8814549446105957e+01
s_1_61 0
z_1_61 0
x_1_62 5.8047219753265381e+01
s_1_62 0
z_1_62 0
x_1_63 0
s_1_63 4.4687718339264393e-01
z_1_63 1
x_1_64 0
s_1_64 4.5117148291319609e-01
z_1_64 1
x_1_65 5.7800177812576294e+01
s_1_65 0
z_1_65 0
x_1_66 5.8676407814025879e+01
s_1_66 0
z_1_66 0
x_1_67 0
s_1_67 4.6148666087538004e-01
z_1_67 1
x_1_68 5.7012161016464233e+01
s_1_68 0
z_1_68 0
x_1_69 5.8485152721405029e+01
s_1_69 0
z_1_69 0
x_1_70 5.8635656356811523e+01
s_1_70 0
z_1_70 0
x_1_71 0
s_1_71 4.7589797433465719e-01
z_1_71 1
x_1_72 5.8830561637878418e+01
s_1_72 0
z_1_72 0
x_1_73 5.8516963481903076e+01
s_1_73 0
z_1_73 0
x_1_74 5.8301992654800415e+01
s_1_74 0
z_1_74 0
x_1_75 0
s_1_75 5.1975897327065468e-01
z_1_75 1
x_1_76 0
s_1_76 3.8631426077336073e-01
z_1_76 1
x_1_77 5.8767044544219971e+01
s_1_77 0
z_1_77 0
x_1_78 0
s_1_78 2.9881560709327459e-01
z_1_78 1
x_1_79 0
s_1_79 0.719201029278338
z_1_79 1
x_1_80 0
s_1_80 4.3192664091475308e-01
z_1_80 1
x_1_81 0
s_1_81 5.4280630405992270e-01
z_1_81 1
x_1_82 5.8005009174346924e+01
s_1_82 0
z_1_82 0
x_1_83 5.7710243701934814e+01
s_1_83 0
z_1_83 0
x_1_84 5.8258330821990967e+01
s_1_84 0
z_1_84 0
x_1_85 5.8760449409484863e+01
s_1_85 0
z_1_85 0
x_1_86 5.7899231910705566e+01
s_1_86 0
z_1_86 0
x_1_87 5.8797764778137207e+01
s_1_87 0
z_1_87 0
x_1_88 5.8620533704757690e+01
s_1_88 0
z_1_88 0
x_1_89 5.8136908054351807e+01
s_1_89 0
z_1_89 0
x_1_90 0
s_1_90 3.0681204656139016e-01
z_1_90 1
x_1_91 5.8685066699981689e+01
s_1_91 0
z_1_91 0
x_1_92 5.8318399190902710e+01
s_1_92 0
z_1_92 0
x_1_93 0
s_1_93 2.7406348928343505e-01
z_1_93 1
x_1_94 5.8049052476882935e+01
s_1_94 0
z_1_94 0
x_1_95 5.8547095298767090e+01
s_1_95 0
z_1_95 0
x_1_96 0
s_1_96 2.6568606588989496e-01
z_1_96 1
x_1_97 5.8247418165206909e+01
s_1_97 0
z_1_97 0
x_1_98 5.8349592208862305e+01
s_1_98 0
z_1_98 0
x_1_99 5.8655584335327148e+01
s_1_99 0
z_1_99 0
x_1_100 5.8659000158309937e+01
s_1_100 0
z_1_100 0
x_1_101 0
s_1_101 6.4240083983168006e-01
z_1_101 1
x_1_102 5.7258806705474854e+01
s_1_102 0
z_1_102 0
x_1_103 5.8664623737335205e+01
s_1_103 0
z_1_103 0
x_1_104 0
s_1_104 0.785014670342207
z_1_104 1
x_1_105 0
s_1_105 5.5038662068545818e-01
z_1_105 1
x_1_106 5.8200379848480225e+01
s_1_106 0
z_1_106 0
x_1_107 0
s_1_107 4.9695487204007804e-01
z_1_107 1
x_1_108 0
s_1_108 5.4098422499373555e-01
z_1_108 1
x_1_109 5.8409036636352539e+01
s_1_109 0
z_1_109 0
x_1_110 0
s_1_110 5.5121000856161118e-01
z_1_110 1
x_1_111 5.8472256183624268e+01
s_1_111 0
z_1_111 0
x_1_112 5.8724306583404541e+01
s_1_112 0
z_1_112 0
x_1_113 5.7691736459732056e+01
s_1_113 0
z_1_113 0
x_1_114 5.7593026161193848e+01
s_1_114 0
z_1_114 0
x_1_115 5.8479999542236328e+01
s_1_115 0
z_1_115 0
x_1_116 5.8966631889343262e+01
s_1_116 0
z_1_116 0
x_1_117 0
s_1_117 4.0961253549903631e-01
z_1_117 1
x_1_118 5.8598242998123169e+01
s_1_118 0
z_1_118 0
x_1_119 5.7826579809188843e+01
s_1_119 0
z_1_119 0
x_1_120 5.8484929323196411e+01
s_1_120 0
z_1_120 0
x_1_121 0
s_1_121 0.614885717863217
z_1_121 1
x_1_122 5.8002585411071777e+01
s_1_122 0
z_1_122 0
x_1_123 5.8043954133987427e+01
s_1_123 0
z_1_123 0
x_1_124 0
s_1_124 5.3850805666297674e-01
z_1_124 1
x_1_125 0
s_1_125 7.5802324712276459e-01
z_1_125 1
x_1_126 58.4051787853241
s_1_126 0
z_1_126 0
x_1_127 5.8445409774780273e+01
s_1_127 0
z_1_127 0
x_1_128 5.8635985612869263e+01
s_1_128 0
z_1_128 0
x_1_129 0
s_1_129 2.1148596610873938e-01
z_1_129 1
x_1_130 0
s_1_130 8.1299775559455156e-01
z_1_130 1
x_1_131 0
s_1_131 4.1434977762401104e-01
z_1_131 1
x_1_132 5.8444969892501831e+01
s_1_132 0
z_1_132 0
x_1_133 5.7452786922454834e+01
s_1_133 0
z_1_133 0
x_1_134 5.8702409505844116e+01
s_1_134 0
z_1_134 0
x_1_135 0
s_1_135 5.7469179946929216e-01
z_1_135 1
x_1_136 0
s_1_136 6.1640569055452943e-01
z_1_136 1
x_1_137 0
s_1_137 0.405146146658808
z_1_137 1
x_1_138 0
s_1_138 7.3878875328227878e-01
z_1_138 1
x_1_139 0
s_1_139 3.4789912216365337e-01
z_1_139 1
x_1_140 5.8032365560531616e+01
s_1_140 0
z_1_140 0
x_1_141 5.6388674259185791e+01
s_1_141 0
z_1_141 0
x_1_142 0
s_1_142 4.0805014222860336e-01
z_1_142 1
x_1_143 5.8129755258560181e+01
s_1_143 0
z_1_143 0
x_1_144 57.6801962852478
s_1_144 0
z_1_144 0
x_1_145 5.8558541059494019e+01
s_1_145 0
z_1_145 0
x_1_146 5.8248231887817383e+01
s_1_146 0
z_1_146 0
x_1_147 0
s_1_147 5.7587013021111488e-01
z_1_147 1
x_1_148 0
s_1_148 2.6746353087946773e-01
z_1_148 1
x_1_149 5.8621222734451294e+01
s_1_149 0
z_1_149 0
x_1_150 5.8916742563247681e+01
s_1_150 0
z_1_150 0
x_1_151 5.8416220903396606e+01
s_1_151 0
z_1_151 0
x_1_152 5.8263059377670288e+01
s_1_152 0
z_1_152 0
x_1_153 0
s_1_153 4.2103233560919762e-01
z_1_153 1
x_1_154 0
s_1_154 5.7010030065430328e-01
z_1_154 1
x_1_155 0
s_1_155 5.5471556819975376e-01
z_1_155 1
x_1_156 5.8779864311218262e+01
s_1_156 0
z_1_156 0
x_1_157 5.8328257799148560e+01
s_1_157 0
z_1_157 0
x_1_158 5.8190993309020996e+01
s_1_158 0
z_1_158 0
x_1_159 5.8854229927062988e+01
s_1_159 0
z_1_159 0
x_2_0 40622.0879055867
